100 500 10 200 10 100
65 34
47 51
31 175
47 181
30 176
10 22
36 184
98 172
13 46
43 128
91 125
51 150
38 77
97 70
72 115
50 134
12 133
38 182
20 171
68 97
79 80
52 198
64 171
65 77
54 159
11 143
19 146
10 55
85 182
73 98
66 119
46 79
64 27
18 172
65 65
68 156
61 20
11 42
59 144
83 19
81 126
28 175
89 44
91 127
79 178
29 156
39 90
83 161
55 128
30 140
83 21
15 162
61 48
22 56
91 125
40 105
41 16
61 177
39 142
55 111
30 162
69 37
55 135
15 172
95 163
72 89
77 196
74 49
11 88
10 68
43 150
62 118
14 85
56 28
80 19
68 180
38 17
23 44
40 48
46 47
17 138
28 197
12 43
74 42
41 152
58 146
68 85
11 78
12 170
33 30
58 69
99 149
81 38
33 61
94 20
62 98
94 91
10 126
88 173
25 44
